c Generated map
c Size: 10 * 10, weights in range: 1 to 10, walls: False, with ratio 0.0
c dim 5 of 7
c
p sp 100 180
c graph contains 100 nodes and 180 arcs
c
a 1 11 1
a 11 1 1
a 1 2 6
a 2 1 6
a 2 12 5
a 12 2 5
a 2 3 4
a 3 2 4
a 3 13 6
a 13 3 6
a 3 4 1
a 4 3 1
a 4 14 1
a 14 4 1
a 4 5 10
a 5 4 10
a 5 15 3
a 15 5 3
a 5 6 2
a 6 5 2
a 6 16 9
a 16 6 9
a 6 7 5
a 7 6 5
a 7 17 3
a 17 7 3
a 7 8 9
a 8 7 9
a 8 18 10
a 18 8 10
a 8 9 3
a 9 8 3
a 9 19 7
a 19 9 7
a 9 10 9
a 10 9 9
a 10 20 1
a 20 10 1
a 11 21 3
a 21 11 3
a 11 12 7
a 12 11 7
a 12 22 7
a 22 12 7
a 12 13 1
a 13 12 1
a 13 23 1
a 23 13 1
a 13 14 7
a 14 13 7
a 14 24 6
a 24 14 6
a 14 15 4
a 15 14 4
a 15 25 2
a 25 15 2
a 15 16 2
a 16 15 2
a 16 26 6
a 26 16 6
a 16 17 2
a 17 16 2
a 17 27 2
a 27 17 2
a 17 18 3
a 18 17 3
a 18 28 7
a 28 18 7
a 18 19 5
a 19 18 5
a 19 29 6
a 29 19 6
a 19 20 4
a 20 19 4
a 20 30 8
a 30 20 8
a 21 31 1
a 31 21 1
a 21 22 8
a 22 21 8
a 22 32 2
a 32 22 2
a 22 23 5
a 23 22 5
a 23 33 1
a 33 23 1
a 23 24 10
a 24 23 10
a 24 34 3
a 34 24 3
a 24 25 3
a 25 24 3
a 25 35 2
a 35 25 2
a 25 26 1
a 26 25 1
a 26 36 7
a 36 26 7
a 26 27 2
a 27 26 2
a 27 37 5
a 37 27 5
a 27 28 9
a 28 27 9
a 28 38 8
a 38 28 8
a 28 29 5
a 29 28 5
a 29 39 6
a 39 29 6
a 29 30 5
a 30 29 5
a 30 40 9
a 40 30 9
a 31 41 5
a 41 31 5
a 31 32 9
a 32 31 9
a 32 42 7
a 42 32 7
a 32 33 10
a 33 32 10
a 33 43 7
a 43 33 7
a 33 34 10
a 34 33 10
a 34 44 2
a 44 34 2
a 34 35 9
a 35 34 9
a 35 45 3
a 45 35 3
a 35 36 4
a 36 35 4
a 36 46 2
a 46 36 2
a 36 37 4
a 37 36 4
a 37 47 5
a 47 37 5
a 37 38 6
a 38 37 6
a 38 48 1
a 48 38 1
a 38 39 5
a 39 38 5
a 39 49 1
a 49 39 1
a 39 40 6
a 40 39 6
a 40 50 3
a 50 40 3
a 41 51 1
a 51 41 1
a 41 42 6
a 42 41 6
a 42 52 4
a 52 42 4
a 42 43 8
a 43 42 8
a 43 53 6
a 53 43 6
a 43 44 1
a 44 43 1
a 44 54 10
a 54 44 10
a 44 45 7
a 45 44 7
a 45 55 4
a 55 45 4
a 45 46 4
a 46 45 4
a 46 56 5
a 56 46 5
a 46 47 10
a 47 46 10
a 47 57 8
a 57 47 8
a 47 48 9
a 48 47 9
a 48 58 10
a 58 48 10
a 48 49 5
a 49 48 5
a 49 59 10
a 59 49 10
a 49 50 2
a 50 49 2
a 50 60 2
a 60 50 2
a 51 61 1
a 61 51 1
a 51 52 6
a 52 51 6
a 52 62 1
a 62 52 1
a 52 53 1
a 53 52 1
a 53 63 3
a 63 53 3
a 53 54 9
a 54 53 9
a 54 64 3
a 64 54 3
a 54 55 8
a 55 54 8
a 55 65 9
a 65 55 9
a 55 56 7
a 56 55 7
a 56 66 2
a 66 56 2
a 56 57 5
a 57 56 5
a 57 67 7
a 67 57 7
a 57 58 5
a 58 57 5
a 58 68 3
a 68 58 3
a 58 59 8
a 59 58 8
a 59 69 5
a 69 59 5
a 59 60 6
a 60 59 6
a 60 70 5
a 70 60 5
a 61 71 3
a 71 61 3
a 61 62 1
a 62 61 1
a 62 72 7
a 72 62 7
a 62 63 9
a 63 62 9
a 63 73 3
a 73 63 3
a 63 64 7
a 64 63 7
a 64 74 2
a 74 64 2
a 64 65 9
a 65 64 9
a 65 75 8
a 75 65 8
a 65 66 6
a 66 65 6
a 66 76 6
a 76 66 6
a 66 67 8
a 67 66 8
a 67 77 10
a 77 67 10
a 67 68 2
a 68 67 2
a 68 78 5
a 78 68 5
a 68 69 6
a 69 68 6
a 69 79 8
a 79 69 8
a 69 70 7
a 70 69 7
a 70 80 1
a 80 70 1
a 71 81 3
a 81 71 3
a 71 72 9
a 72 71 9
a 72 82 8
a 82 72 8
a 72 73 7
a 73 72 7
a 73 83 6
a 83 73 6
a 73 74 2
a 74 73 2
a 74 84 2
a 84 74 2
a 74 75 4
a 75 74 4
a 75 85 2
a 85 75 2
a 75 76 7
a 76 75 7
a 76 86 3
a 86 76 3
a 76 77 8
a 77 76 8
a 77 87 8
a 87 77 8
a 77 78 3
a 78 77 3
a 78 88 4
a 88 78 4
a 78 79 3
a 79 78 3
a 79 89 10
a 89 79 10
a 79 80 10
a 80 79 10
a 80 90 5
a 90 80 5
a 81 91 5
a 91 81 5
a 81 82 10
a 82 81 10
a 82 92 2
a 92 82 2
a 82 83 7
a 83 82 7
a 83 93 10
a 93 83 10
a 83 84 10
a 84 83 10
a 84 94 10
a 94 84 10
a 84 85 7
a 85 84 7
a 85 95 1
a 95 85 1
a 85 86 4
a 86 85 4
a 86 96 7
a 96 86 7
a 86 87 7
a 87 86 7
a 87 97 10
a 97 87 10
a 87 88 2
a 88 87 2
a 88 98 9
a 98 88 9
a 88 89 8
a 89 88 8
a 89 99 7
a 99 89 7
a 89 90 10
a 90 89 10
a 90 100 4
a 100 90 4
a 91 92 2
a 92 91 2
a 92 93 4
a 93 92 4
a 93 94 1
a 94 93 1
a 94 95 3
a 95 94 3
a 95 96 8
a 96 95 8
a 96 97 2
a 97 96 2
a 97 98 6
a 98 97 6
a 98 99 1
a 99 98 1
a 99 100 7
a 100 99 7
